//Number of items      		
161
//Bin Capacity      
1000
//Known Best Solution  		
67
//Weight of Item
     698         1
     691         1
     690         1
     689         1
     686         1
     681         1
     676         1
     675         1
     674         1
     666         1
     662         1
     660         1
     653         1
     652         1
     651         2
     649         1
     641         1
     636         1
     635         1
     634         1
     629         1
     628         2
     626         1
     624         1
     621         3
     620         1
     616         1
     611         1
     610         1
     603         1
     602         1
     600         2
     596         2
     590         1
     587         1
     585         1
     578         1
     577         1
     572         1
     569         1
     566         1
     561         1
     559         1
     555         1
     548         1
     545         1
     541         1
     539         1
     538         1
     534         2
     532         1
     531         1
     529         1
     527         1
     521         1
     519         1
     499         1
     497         1
     496         1
     495         2
     483         1
     480         1
     478         1
     475         1
     471         1
     461         1
     460         1
     459         1
     458         1
     444         1
     435         1
     432         1
     426         1
     423         2
     420         1
     414         2
     411         1
     392         2
     391         1
     390         1
     386         1
     385         1
     381         1
     378         1
     376         1
     365         1
     353         1
     341         1
     335         1
     332         1
     331         1
     325         1
     317         1
     316         1
     315         1
     304         1
     303         1
     300         1
     298         1
     297         1
     292         2
     282         1
     281         1
     268         1
     262         1
     251         1
     246         1
     230         1
     227         1
     216         1
     214         1
     201         2
     197         1
     194         1
     190         1
     189         1
     188         1
     183         1
     181         1
     179         1
     176         1
     173         1
     169         2
     168         1
     167         1
     160         1
     159         1
     156         1
     151         1
     144         1
     130         1
     128         1
     126         1
     124         1
     122         1
     110         1
     107         1
     100         1
      96         2
      95         1
      88         1
      85         2
      84         1
      83         1
      79         3
      76         1
      73         1
      72         1
      69         1
      65         1
      62         1
      56         1
      55         1
      51         1
      47         1
      36         2
      32         1
      30         1
      29         1
      28         1
       1         1